// Objective Function
max: 14000a1 + 3500b2;

/* Constraints */
14000a1 + 3500a2 - 150b1 - 0.2b2 <= 0;
14000a1 + 21000a2 - 400b1 - 0.7b2 <= 0;
42000a1 + 10500a2 - 320b1 - 1.2b2 <= 0;
28000a1 + 42000a2 - 520b1 - 2.0b2 <= 0;
19000a1 + 25000a2 - 350b1 - 1.2b2 <= 0;
14000a1 + 15000a2 - 320b1 - 0.7b2 <= 0;
150b1 + 0.2yb2 = 1;



